Route 1: 5 93 2 1 100 99 92 97 95 94 7 98 3 4 89 18 23 28 15 14 12 16 19 13 17 25 21 8 11 9 10 90
Route 2: 22 27 30 24 6 31 33 37 38 39 32 35 34 36 26 91 88 84 86 83 82 85 76 73 71 81 70 80 79 78 96 77 87
Route 3: 75 63 29 67 72 64 68 49 20 65 60 55 54 53 56 58 59 50 45 57 40 44 46 51 52 47 42 41 43 48
Route 4: 74 62 66 69 61
Vehicles: 4
Distance: 1111.90
